%Mem=8192MB
%NProcShared=4
%chk=47528.chk
#P AM1 Opt=(MaxCycle=900,InitialHarmonic=50000)

first AM1 optimization

-1  1
N          -0.78998         8.28098        22.20400
H          -1.60998         8.02598        22.75100
C          -0.13598         7.28198        21.62200
C          -0.62898         5.82698        21.79200
H          -1.47298         5.79498        22.32700
H           0.05502         5.26998        22.26300
H          -0.81098         5.40398        20.90400
C           1.04702         7.58398        20.89800
O           1.71102         6.56698        20.32300
C           1.49702         8.94298        20.73600
C           2.76102         9.34698        19.99701
H           3.11540        10.27543        19.88582
C           0.74102         9.97198        21.38900
C          -0.41398         9.59998        22.09900
H          -0.97198        10.30598        22.53500
C           1.15602        11.43698        21.33300
H           0.58002        11.99998        21.92500
H           2.11502        11.55298        21.59300
O           0.97302        11.84098        19.94500
P           1.84102        13.16098        19.49900
O           1.80102        14.19498        20.54000
O           1.22702        13.55498        18.16000
O           3.36602        12.67798        19.35000
C           5.09856         9.95369        19.31620
C           5.01400        10.42362        20.63014
C           5.83545        10.69878        18.38110
C           5.65338        11.60704        21.00184
C           6.46878        11.88305        18.75227
C           6.38081        12.34122        20.06824
C           4.47409         8.65948        18.84922
C           5.48806         7.51696        18.85597
N           3.24587         8.35227        19.57813
H           2.86953         7.43448        19.70470
H           4.44437         9.87671        21.40047
H           5.92041        10.34091        17.34330
H           5.57977        11.96224        22.04404
H           7.04174        12.45935        18.00591
H           6.88507        13.27379        20.36688
H           3.87629         8.77226        17.88949
H           5.78602         7.26629        19.90303
H           6.40283         7.80435        18.28439
H           5.04226         6.61143        18.37962

--link1--
%chk=47528.chk
#P HF/6-31G* Opt=(MaxCycle=900,InitialHarmonic=50000) SCF=(Tight,MaxCycle=900) Geom=AllCheck Guess=Read Pop=MK IOp(6/33=2,6/41=10,6/42=17)
